5772
0 1 0 1 0 1 0 0 1 0 1 0 0 1 1 1 0 0 0 0 0 0 0 0 0 0 0 0 1 0
10 10 10 10 10 10 10 15 1 1 1 1 1 15 1 3 3 3 3 3 3 5 5 5 5 5 5 8 8 13 8 8 8 8 10 3 3 5 3 28 28 3 15 28 14 14 14 14 13 28 10 13 13 1 3 14 13 28 14 14 15 15 28 28 14 13 14 13 15 28
